p cnf 325 3145
1 2 3 4 5 6 7 8 9 10 11 12 13 0
14 15 16 17 18 19 20 21 22 23 24 25 26 0
27 28 29 30 31 32 33 34 35 36 37 38 39 0
40 41 42 43 44 45 46 47 48 49 50 51 52 0
53 54 55 56 57 58 59 60 61 62 63 64 65 0
66 67 68 69 70 71 72 73 74 75 76 77 78 0
79 80 81 82 83 84 85 86 87 88 89 90 91 0
92 93 94 95 96 97 98 99 100 101 102 103 104 0
105 106 107 108 109 110 111 112 113 114 115 116 117 0
118 119 120 121 122 123 124 125 126 127 128 129 130 0
131 132 133 134 135 136 137 138 139 140 141 142 143 0
144 145 146 147 148 149 150 151 152 153 154 155 156 0
157 158 159 160 161 162 163 164 165 166 167 168 169 0
170 171 172 173 174 175 176 177 178 179 180 181 182 0
183 184 185 186 187 188 189 190 191 192 193 194 195 0
196 197 198 199 200 201 202 203 204 205 206 207 208 0
209 210 211 212 213 214 215 216 217 218 219 220 221 0
222 223 224 225 226 227 228 229 230 231 232 233 234 0
235 236 237 238 239 240 241 242 243 244 245 246 247 0
248 249 250 251 252 253 254 255 256 257 258 259 260 0
261 262 263 264 265 266 267 268 269 270 271 272 273 0
274 275 276 277 278 279 280 281 282 283 284 285 286 0
287 288 289 290 291 292 293 294 295 296 297 298 299 0
300 301 302 303 304 305 306 307 308 309 310 311 312 0
313 314 315 316 317 318 319 320 321 322 323 324 325 0
-1 -2 0
-1 -3 0
-1 -4 0
-1 -5 0
-1 -6 0
-1 -7 0
-1 -8 0
-1 -9 0
-1 -10 0
-1 -11 0
-1 -12 0
-1 -13 0
-2 -3 0
-2 -4 0
-2 -5 0
-2 -6 0
-2 -7 0
-2 -8 0
-2 -9 0
-2 -10 0
-2 -11 0
-2 -12 0
-2 -13 0
-3 -4 0
-3 -5 0
-3 -6 0
-3 -7 0
-3 -8 0
-3 -9 0
-3 -10 0
-3 -11 0
-3 -12 0
-3 -13 0
-4 -5 0
-4 -6 0
-4 -7 0
-4 -8 0
-4 -9 0
-4 -10 0
-4 -11 0
-4 -12 0
-4 -13 0
-5 -6 0
-5 -7 0
-5 -8 0
-5 -9 0
-5 -10 0
-5 -11 0
-5 -12 0
-5 -13 0
-6 -7 0
-6 -8 0
-6 -9 0
-6 -10 0
-6 -11 0
-6 -12 0
-6 -13 0
-7 -8 0
-7 -9 0
-7 -10 0
-7 -11 0
-7 -12 0
-7 -13 0
-8 -9 0
-8 -10 0
-8 -11 0
-8 -12 0
-8 -13 0
-9 -10 0
-9 -11 0
-9 -12 0
-9 -13 0
-10 -11 0
-10 -12 0
-10 -13 0
-11 -12 0
-11 -13 0
-12 -13 0
-14 -15 0
-14 -16 0
-14 -17 0
-14 -18 0
-14 -19 0
-14 -20 0
-14 -21 0
-14 -22 0
-14 -23 0
-14 -24 0
-14 -25 0
-14 -26 0
-15 -16 0
-15 -17 0
-15 -18 0
-15 -19 0
-15 -20 0
-15 -21 0
-15 -22 0
-15 -23 0
-15 -24 0
-15 -25 0
-15 -26 0
-16 -17 0
-16 -18 0
-16 -19 0
-16 -20 0
-16 -21 0
-16 -22 0
-16 -23 0
-16 -24 0
-16 -25 0
-16 -26 0
-17 -18 0
-17 -19 0
-17 -20 0
-17 -21 0
-17 -22 0
-17 -23 0
-17 -24 0
-17 -25 0
-17 -26 0
-18 -19 0
-18 -20 0
-18 -21 0
-18 -22 0
-18 -23 0
-18 -24 0
-18 -25 0
-18 -26 0
-19 -20 0
-19 -21 0
-19 -22 0
-19 -23 0
-19 -24 0
-19 -25 0
-19 -26 0
-20 -21 0
-20 -22 0
-20 -23 0
-20 -24 0
-20 -25 0
-20 -26 0
-21 -22 0
-21 -23 0
-21 -24 0
-21 -25 0
-21 -26 0
-22 -23 0
-22 -24 0
-22 -25 0
-22 -26 0
-23 -24 0
-23 -25 0
-23 -26 0
-24 -25 0
-24 -26 0
-25 -26 0
-27 -28 0
-27 -29 0
-27 -30 0
-27 -31 0
-27 -32 0
-27 -33 0
-27 -34 0
-27 -35 0
-27 -36 0
-27 -37 0
-27 -38 0
-27 -39 0
-28 -29 0
-28 -30 0
-28 -31 0
-28 -32 0
-28 -33 0
-28 -34 0
-28 -35 0
-28 -36 0
-28 -37 0
-28 -38 0
-28 -39 0
-29 -30 0
-29 -31 0
-29 -32 0
-29 -33 0
-29 -34 0
-29 -35 0
-29 -36 0
-29 -37 0
-29 -38 0
-29 -39 0
-30 -31 0
-30 -32 0
-30 -33 0
-30 -34 0
-30 -35 0
-30 -36 0
-30 -37 0
-30 -38 0
-30 -39 0
-31 -32 0
-31 -33 0
-31 -34 0
-31 -35 0
-31 -36 0
-31 -37 0
-31 -38 0
-31 -39 0
-32 -33 0
-32 -34 0
-32 -35 0
-32 -36 0
-32 -37 0
-32 -38 0
-32 -39 0
-33 -34 0
-33 -35 0
-33 -36 0
-33 -37 0
-33 -38 0
-33 -39 0
-34 -35 0
-34 -36 0
-34 -37 0
-34 -38 0
-34 -39 0
-35 -36 0
-35 -37 0
-35 -38 0
-35 -39 0
-36 -37 0
-36 -38 0
-36 -39 0
-37 -38 0
-37 -39 0
-38 -39 0
-40 -41 0
-40 -42 0
-40 -43 0
-40 -44 0
-40 -45 0
-40 -46 0
-40 -47 0
-40 -48 0
-40 -49 0
-40 -50 0
-40 -51 0
-40 -52 0
-41 -42 0
-41 -43 0
-41 -44 0
-41 -45 0
-41 -46 0
-41 -47 0
-41 -48 0
-41 -49 0
-41 -50 0
-41 -51 0
-41 -52 0
-42 -43 0
-42 -44 0
-42 -45 0
-42 -46 0
-42 -47 0
-42 -48 0
-42 -49 0
-42 -50 0
-42 -51 0
-42 -52 0
-43 -44 0
-43 -45 0
-43 -46 0
-43 -47 0
-43 -48 0
-43 -49 0
-43 -50 0
-43 -51 0
-43 -52 0
-44 -45 0
-44 -46 0
-44 -47 0
-44 -48 0
-44 -49 0
-44 -50 0
-44 -51 0
-44 -52 0
-45 -46 0
-45 -47 0
-45 -48 0
-45 -49 0
-45 -50 0
-45 -51 0
-45 -52 0
-46 -47 0
-46 -48 0
-46 -49 0
-46 -50 0
-46 -51 0
-46 -52 0
-47 -48 0
-47 -49 0
-47 -50 0
-47 -51 0
-47 -52 0
-48 -49 0
-48 -50 0
-48 -51 0
-48 -52 0
-49 -50 0
-49 -51 0
-49 -52 0
-50 -51 0
-50 -52 0
-51 -52 0
-53 -54 0
-53 -55 0
-53 -56 0
-53 -57 0
-53 -58 0
-53 -59 0
-53 -60 0
-53 -61 0
-53 -62 0
-53 -63 0
-53 -64 0
-53 -65 0
-54 -55 0
-54 -56 0
-54 -57 0
-54 -58 0
-54 -59 0
-54 -60 0
-54 -61 0
-54 -62 0
-54 -63 0
-54 -64 0
-54 -65 0
-55 -56 0
-55 -57 0
-55 -58 0
-55 -59 0
-55 -60 0
-55 -61 0
-55 -62 0
-55 -63 0
-55 -64 0
-55 -65 0
-56 -57 0
-56 -58 0
-56 -59 0
-56 -60 0
-56 -61 0
-56 -62 0
-56 -63 0
-56 -64 0
-56 -65 0
-57 -58 0
-57 -59 0
-57 -60 0
-57 -61 0
-57 -62 0
-57 -63 0
-57 -64 0
-57 -65 0
-58 -59 0
-58 -60 0
-58 -61 0
-58 -62 0
-58 -63 0
-58 -64 0
-58 -65 0
-59 -60 0
-59 -61 0
-59 -62 0
-59 -63 0
-59 -64 0
-59 -65 0
-60 -61 0
-60 -62 0
-60 -63 0
-60 -64 0
-60 -65 0
-61 -62 0
-61 -63 0
-61 -64 0
-61 -65 0
-62 -63 0
-62 -64 0
-62 -65 0
-63 -64 0
-63 -65 0
-64 -65 0
-66 -67 0
-66 -68 0
-66 -69 0
-66 -70 0
-66 -71 0
-66 -72 0
-66 -73 0
-66 -74 0
-66 -75 0
-66 -76 0
-66 -77 0
-66 -78 0
-67 -68 0
-67 -69 0
-67 -70 0
-67 -71 0
-67 -72 0
-67 -73 0
-67 -74 0
-67 -75 0
-67 -76 0
-67 -77 0
-67 -78 0
-68 -69 0
-68 -70 0
-68 -71 0
-68 -72 0
-68 -73 0
-68 -74 0
-68 -75 0
-68 -76 0
-68 -77 0
-68 -78 0
-69 -70 0
-69 -71 0
-69 -72 0
-69 -73 0
-69 -74 0
-69 -75 0
-69 -76 0
-69 -77 0
-69 -78 0
-70 -71 0
-70 -72 0
-70 -73 0
-70 -74 0
-70 -75 0
-70 -76 0
-70 -77 0
-70 -78 0
-71 -72 0
-71 -73 0
-71 -74 0
-71 -75 0
-71 -76 0
-71 -77 0
-71 -78 0
-72 -73 0
-72 -74 0
-72 -75 0
-72 -76 0
-72 -77 0
-72 -78 0
-73 -74 0
-73 -75 0
-73 -76 0
-73 -77 0
-73 -78 0
-74 -75 0
-74 -76 0
-74 -77 0
-74 -78 0
-75 -76 0
-75 -77 0
-75 -78 0
-76 -77 0
-76 -78 0
-77 -78 0
-79 -80 0
-79 -81 0
-79 -82 0
-79 -83 0
-79 -84 0
-79 -85 0
-79 -86 0
-79 -87 0
-79 -88 0
-79 -89 0
-79 -90 0
-79 -91 0
-80 -81 0
-80 -82 0
-80 -83 0
-80 -84 0
-80 -85 0
-80 -86 0
-80 -87 0
-80 -88 0
-80 -89 0
-80 -90 0
-80 -91 0
-81 -82 0
-81 -83 0
-81 -84 0
-81 -85 0
-81 -86 0
-81 -87 0
-81 -88 0
-81 -89 0
-81 -90 0
-81 -91 0
-82 -83 0
-82 -84 0
-82 -85 0
-82 -86 0
-82 -87 0
-82 -88 0
-82 -89 0
-82 -90 0
-82 -91 0
-83 -84 0
-83 -85 0
-83 -86 0
-83 -87 0
-83 -88 0
-83 -89 0
-83 -90 0
-83 -91 0
-84 -85 0
-84 -86 0
-84 -87 0
-84 -88 0
-84 -89 0
-84 -90 0
-84 -91 0
-85 -86 0
-85 -87 0
-85 -88 0
-85 -89 0
-85 -90 0
-85 -91 0
-86 -87 0
-86 -88 0
-86 -89 0
-86 -90 0
-86 -91 0
-87 -88 0
-87 -89 0
-87 -90 0
-87 -91 0
-88 -89 0
-88 -90 0
-88 -91 0
-89 -90 0
-89 -91 0
-90 -91 0
-92 -93 0
-92 -94 0
-92 -95 0
-92 -96 0
-92 -97 0
-92 -98 0
-92 -99 0
-92 -100 0
-92 -101 0
-92 -102 0
-92 -103 0
-92 -104 0
-93 -94 0
-93 -95 0
-93 -96 0
-93 -97 0
-93 -98 0
-93 -99 0
-93 -100 0
-93 -101 0
-93 -102 0
-93 -103 0
-93 -104 0
-94 -95 0
-94 -96 0
-94 -97 0
-94 -98 0
-94 -99 0
-94 -100 0
-94 -101 0
-94 -102 0
-94 -103 0
-94 -104 0
-95 -96 0
-95 -97 0
-95 -98 0
-95 -99 0
-95 -100 0
-95 -101 0
-95 -102 0
-95 -103 0
-95 -104 0
-96 -97 0
-96 -98 0
-96 -99 0
-96 -100 0
-96 -101 0
-96 -102 0
-96 -103 0
-96 -104 0
-97 -98 0
-97 -99 0
-97 -100 0
-97 -101 0
-97 -102 0
-97 -103 0
-97 -104 0
-98 -99 0
-98 -100 0
-98 -101 0
-98 -102 0
-98 -103 0
-98 -104 0
-99 -100 0
-99 -101 0
-99 -102 0
-99 -103 0
-99 -104 0
-100 -101 0
-100 -102 0
-100 -103 0
-100 -104 0
-101 -102 0
-101 -103 0
-101 -104 0
-102 -103 0
-102 -104 0
-103 -104 0
-105 -106 0
-105 -107 0
-105 -108 0
-105 -109 0
-105 -110 0
-105 -111 0
-105 -112 0
-105 -113 0
-105 -114 0
-105 -115 0
-105 -116 0
-105 -117 0
-106 -107 0
-106 -108 0
-106 -109 0
-106 -110 0
-106 -111 0
-106 -112 0
-106 -113 0
-106 -114 0
-106 -115 0
-106 -116 0
-106 -117 0
-107 -108 0
-107 -109 0
-107 -110 0
-107 -111 0
-107 -112 0
-107 -113 0
-107 -114 0
-107 -115 0
-107 -116 0
-107 -117 0
-108 -109 0
-108 -110 0
-108 -111 0
-108 -112 0
-108 -113 0
-108 -114 0
-108 -115 0
-108 -116 0
-108 -117 0
-109 -110 0
-109 -111 0
-109 -112 0
-109 -113 0
-109 -114 0
-109 -115 0
-109 -116 0
-109 -117 0
-110 -111 0
-110 -112 0
-110 -113 0
-110 -114 0
-110 -115 0
-110 -116 0
-110 -117 0
-111 -112 0
-111 -113 0
-111 -114 0
-111 -115 0
-111 -116 0
-111 -117 0
-112 -113 0
-112 -114 0
-112 -115 0
-112 -116 0
-112 -117 0
-113 -114 0
-113 -115 0
-113 -116 0
-113 -117 0
-114 -115 0
-114 -116 0
-114 -117 0
-115 -116 0
-115 -117 0
-116 -117 0
-118 -119 0
-118 -120 0
-118 -121 0
-118 -122 0
-118 -123 0
-118 -124 0
-118 -125 0
-118 -126 0
-118 -127 0
-118 -128 0
-118 -129 0
-118 -130 0
-119 -120 0
-119 -121 0
-119 -122 0
-119 -123 0
-119 -124 0
-119 -125 0
-119 -126 0
-119 -127 0
-119 -128 0
-119 -129 0
-119 -130 0
-120 -121 0
-120 -122 0
-120 -123 0
-120 -124 0
-120 -125 0
-120 -126 0
-120 -127 0
-120 -128 0
-120 -129 0
-120 -130 0
-121 -122 0
-121 -123 0
-121 -124 0
-121 -125 0
-121 -126 0
-121 -127 0
-121 -128 0
-121 -129 0
-121 -130 0
-122 -123 0
-122 -124 0
-122 -125 0
-122 -126 0
-122 -127 0
-122 -128 0
-122 -129 0
-122 -130 0
-123 -124 0
-123 -125 0
-123 -126 0
-123 -127 0
-123 -128 0
-123 -129 0
-123 -130 0
-124 -125 0
-124 -126 0
-124 -127 0
-124 -128 0
-124 -129 0
-124 -130 0
-125 -126 0
-125 -127 0
-125 -128 0
-125 -129 0
-125 -130 0
-126 -127 0
-126 -128 0
-126 -129 0
-126 -130 0
-127 -128 0
-127 -129 0
-127 -130 0
-128 -129 0
-128 -130 0
-129 -130 0
-131 -132 0
-131 -133 0
-131 -134 0
-131 -135 0
-131 -136 0
-131 -137 0
-131 -138 0
-131 -139 0
-131 -140 0
-131 -141 0
-131 -142 0
-131 -143 0
-132 -133 0
-132 -134 0
-132 -135 0
-132 -136 0
-132 -137 0
-132 -138 0
-132 -139 0
-132 -140 0
-132 -141 0
-132 -142 0
-132 -143 0
-133 -134 0
-133 -135 0
-133 -136 0
-133 -137 0
-133 -138 0
-133 -139 0
-133 -140 0
-133 -141 0
-133 -142 0
-133 -143 0
-134 -135 0
-134 -136 0
-134 -137 0
-134 -138 0
-134 -139 0
-134 -140 0
-134 -141 0
-134 -142 0
-134 -143 0
-135 -136 0
-135 -137 0
-135 -138 0
-135 -139 0
-135 -140 0
-135 -141 0
-135 -142 0
-135 -143 0
-136 -137 0
-136 -138 0
-136 -139 0
-136 -140 0
-136 -141 0
-136 -142 0
-136 -143 0
-137 -138 0
-137 -139 0
-137 -140 0
-137 -141 0
-137 -142 0
-137 -143 0
-138 -139 0
-138 -140 0
-138 -141 0
-138 -142 0
-138 -143 0
-139 -140 0
-139 -141 0
-139 -142 0
-139 -143 0
-140 -141 0
-140 -142 0
-140 -143 0
-141 -142 0
-141 -143 0
-142 -143 0
-144 -145 0
-144 -146 0
-144 -147 0
-144 -148 0
-144 -149 0
-144 -150 0
-144 -151 0
-144 -152 0
-144 -153 0
-144 -154 0
-144 -155 0
-144 -156 0
-145 -146 0
-145 -147 0
-145 -148 0
-145 -149 0
-145 -150 0
-145 -151 0
-145 -152 0
-145 -153 0
-145 -154 0
-145 -155 0
-145 -156 0
-146 -147 0
-146 -148 0
-146 -149 0
-146 -150 0
-146 -151 0
-146 -152 0
-146 -153 0
-146 -154 0
-146 -155 0
-146 -156 0
-147 -148 0
-147 -149 0
-147 -150 0
-147 -151 0
-147 -152 0
-147 -153 0
-147 -154 0
-147 -155 0
-147 -156 0
-148 -149 0
-148 -150 0
-148 -151 0
-148 -152 0
-148 -153 0
-148 -154 0
-148 -155 0
-148 -156 0
-149 -150 0
-149 -151 0
-149 -152 0
-149 -153 0
-149 -154 0
-149 -155 0
-149 -156 0
-150 -151 0
-150 -152 0
-150 -153 0
-150 -154 0
-150 -155 0
-150 -156 0
-151 -152 0
-151 -153 0
-151 -154 0
-151 -155 0
-151 -156 0
-152 -153 0
-152 -154 0
-152 -155 0
-152 -156 0
-153 -154 0
-153 -155 0
-153 -156 0
-154 -155 0
-154 -156 0
-155 -156 0
-157 -158 0
-157 -159 0
-157 -160 0
-157 -161 0
-157 -162 0
-157 -163 0
-157 -164 0
-157 -165 0
-157 -166 0
-157 -167 0
-157 -168 0
-157 -169 0
-158 -159 0
-158 -160 0
-158 -161 0
-158 -162 0
-158 -163 0
-158 -164 0
-158 -165 0
-158 -166 0
-158 -167 0
-158 -168 0
-158 -169 0
-159 -160 0
-159 -161 0
-159 -162 0
-159 -163 0
-159 -164 0
-159 -165 0
-159 -166 0
-159 -167 0
-159 -168 0
-159 -169 0
-160 -161 0
-160 -162 0
-160 -163 0
-160 -164 0
-160 -165 0
-160 -166 0
-160 -167 0
-160 -168 0
-160 -169 0
-161 -162 0
-161 -163 0
-161 -164 0
-161 -165 0
-161 -166 0
-161 -167 0
-161 -168 0
-161 -169 0
-162 -163 0
-162 -164 0
-162 -165 0
-162 -166 0
-162 -167 0
-162 -168 0
-162 -169 0
-163 -164 0
-163 -165 0
-163 -166 0
-163 -167 0
-163 -168 0
-163 -169 0
-164 -165 0
-164 -166 0
-164 -167 0
-164 -168 0
-164 -169 0
-165 -166 0
-165 -167 0
-165 -168 0
-165 -169 0
-166 -167 0
-166 -168 0
-166 -169 0
-167 -168 0
-167 -169 0
-168 -169 0
-170 -171 0
-170 -172 0
-170 -173 0
-170 -174 0
-170 -175 0
-170 -176 0
-170 -177 0
-170 -178 0
-170 -179 0
-170 -180 0
-170 -181 0
-170 -182 0
-171 -172 0
-171 -173 0
-171 -174 0
-171 -175 0
-171 -176 0
-171 -177 0
-171 -178 0
-171 -179 0
-171 -180 0
-171 -181 0
-171 -182 0
-172 -173 0
-172 -174 0
-172 -175 0
-172 -176 0
-172 -177 0
-172 -178 0
-172 -179 0
-172 -180 0
-172 -181 0
-172 -182 0
-173 -174 0
-173 -175 0
-173 -176 0
-173 -177 0
-173 -178 0
-173 -179 0
-173 -180 0
-173 -181 0
-173 -182 0
-174 -175 0
-174 -176 0
-174 -177 0
-174 -178 0
-174 -179 0
-174 -180 0
-174 -181 0
-174 -182 0
-175 -176 0
-175 -177 0
-175 -178 0
-175 -179 0
-175 -180 0
-175 -181 0
-175 -182 0
-176 -177 0
-176 -178 0
-176 -179 0
-176 -180 0
-176 -181 0
-176 -182 0
-177 -178 0
-177 -179 0
-177 -180 0
-177 -181 0
-177 -182 0
-178 -179 0
-178 -180 0
-178 -181 0
-178 -182 0
-179 -180 0
-179 -181 0
-179 -182 0
-180 -181 0
-180 -182 0
-181 -182 0
-183 -184 0
-183 -185 0
-183 -186 0
-183 -187 0
-183 -188 0
-183 -189 0
-183 -190 0
-183 -191 0
-183 -192 0
-183 -193 0
-183 -194 0
-183 -195 0
-184 -185 0
-184 -186 0
-184 -187 0
-184 -188 0
-184 -189 0
-184 -190 0
-184 -191 0
-184 -192 0
-184 -193 0
-184 -194 0
-184 -195 0
-185 -186 0
-185 -187 0
-185 -188 0
-185 -189 0
-185 -190 0
-185 -191 0
-185 -192 0
-185 -193 0
-185 -194 0
-185 -195 0
-186 -187 0
-186 -188 0
-186 -189 0
-186 -190 0
-186 -191 0
-186 -192 0
-186 -193 0
-186 -194 0
-186 -195 0
-187 -188 0
-187 -189 0
-187 -190 0
-187 -191 0
-187 -192 0
-187 -193 0
-187 -194 0
-187 -195 0
-188 -189 0
-188 -190 0
-188 -191 0
-188 -192 0
-188 -193 0
-188 -194 0
-188 -195 0
-189 -190 0
-189 -191 0
-189 -192 0
-189 -193 0
-189 -194 0
-189 -195 0
-190 -191 0
-190 -192 0
-190 -193 0
-190 -194 0
-190 -195 0
-191 -192 0
-191 -193 0
-191 -194 0
-191 -195 0
-192 -193 0
-192 -194 0
-192 -195 0
-193 -194 0
-193 -195 0
-194 -195 0
-196 -197 0
-196 -198 0
-196 -199 0
-196 -200 0
-196 -201 0
-196 -202 0
-196 -203 0
-196 -204 0
-196 -205 0
-196 -206 0
-196 -207 0
-196 -208 0
-197 -198 0
-197 -199 0
-197 -200 0
-197 -201 0
-197 -202 0
-197 -203 0
-197 -204 0
-197 -205 0
-197 -206 0
-197 -207 0
-197 -208 0
-198 -199 0
-198 -200 0
-198 -201 0
-198 -202 0
-198 -203 0
-198 -204 0
-198 -205 0
-198 -206 0
-198 -207 0
-198 -208 0
-199 -200 0
-199 -201 0
-199 -202 0
-199 -203 0
-199 -204 0
-199 -205 0
-199 -206 0
-199 -207 0
-199 -208 0
-200 -201 0
-200 -202 0
-200 -203 0
-200 -204 0
-200 -205 0
-200 -206 0
-200 -207 0
-200 -208 0
-201 -202 0
-201 -203 0
-201 -204 0
-201 -205 0
-201 -206 0
-201 -207 0
-201 -208 0
-202 -203 0
-202 -204 0
-202 -205 0
-202 -206 0
-202 -207 0
-202 -208 0
-203 -204 0
-203 -205 0
-203 -206 0
-203 -207 0
-203 -208 0
-204 -205 0
-204 -206 0
-204 -207 0
-204 -208 0
-205 -206 0
-205 -207 0
-205 -208 0
-206 -207 0
-206 -208 0
-207 -208 0
-209 -210 0
-209 -211 0
-209 -212 0
-209 -213 0
-209 -214 0
-209 -215 0
-209 -216 0
-209 -217 0
-209 -218 0
-209 -219 0
-209 -220 0
-209 -221 0
-210 -211 0
-210 -212 0
-210 -213 0
-210 -214 0
-210 -215 0
-210 -216 0
-210 -217 0
-210 -218 0
-210 -219 0
-210 -220 0
-210 -221 0
-211 -212 0
-211 -213 0
-211 -214 0
-211 -215 0
-211 -216 0
-211 -217 0
-211 -218 0
-211 -219 0
-211 -220 0
-211 -221 0
-212 -213 0
-212 -214 0
-212 -215 0
-212 -216 0
-212 -217 0
-212 -218 0
-212 -219 0
-212 -220 0
-212 -221 0
-213 -214 0
-213 -215 0
-213 -216 0
-213 -217 0
-213 -218 0
-213 -219 0
-213 -220 0
-213 -221 0
-214 -215 0
-214 -216 0
-214 -217 0
-214 -218 0
-214 -219 0
-214 -220 0
-214 -221 0
-215 -216 0
-215 -217 0
-215 -218 0
-215 -219 0
-215 -220 0
-215 -221 0
-216 -217 0
-216 -218 0
-216 -219 0
-216 -220 0
-216 -221 0
-217 -218 0
-217 -219 0
-217 -220 0
-217 -221 0
-218 -219 0
-218 -220 0
-218 -221 0
-219 -220 0
-219 -221 0
-220 -221 0
-222 -223 0
-222 -224 0
-222 -225 0
-222 -226 0
-222 -227 0
-222 -228 0
-222 -229 0
-222 -230 0
-222 -231 0
-222 -232 0
-222 -233 0
-222 -234 0
-223 -224 0
-223 -225 0
-223 -226 0
-223 -227 0
-223 -228 0
-223 -229 0
-223 -230 0
-223 -231 0
-223 -232 0
-223 -233 0
-223 -234 0
-224 -225 0
-224 -226 0
-224 -227 0
-224 -228 0
-224 -229 0
-224 -230 0
-224 -231 0
-224 -232 0
-224 -233 0
-224 -234 0
-225 -226 0
-225 -227 0
-225 -228 0
-225 -229 0
-225 -230 0
-225 -231 0
-225 -232 0
-225 -233 0
-225 -234 0
-226 -227 0
-226 -228 0
-226 -229 0
-226 -230 0
-226 -231 0
-226 -232 0
-226 -233 0
-226 -234 0
-227 -228 0
-227 -229 0
-227 -230 0
-227 -231 0
-227 -232 0
-227 -233 0
-227 -234 0
-228 -229 0
-228 -230 0
-228 -231 0
-228 -232 0
-228 -233 0
-228 -234 0
-229 -230 0
-229 -231 0
-229 -232 0
-229 -233 0
-229 -234 0
-230 -231 0
-230 -232 0
-230 -233 0
-230 -234 0
-231 -232 0
-231 -233 0
-231 -234 0
-232 -233 0
-232 -234 0
-233 -234 0
-235 -236 0
-235 -237 0
-235 -238 0
-235 -239 0
-235 -240 0
-235 -241 0
-235 -242 0
-235 -243 0
-235 -244 0
-235 -245 0
-235 -246 0
-235 -247 0
-236 -237 0
-236 -238 0
-236 -239 0
-236 -240 0
-236 -241 0
-236 -242 0
-236 -243 0
-236 -244 0
-236 -245 0
-236 -246 0
-236 -247 0
-237 -238 0
-237 -239 0
-237 -240 0
-237 -241 0
-237 -242 0
-237 -243 0
-237 -244 0
-237 -245 0
-237 -246 0
-237 -247 0
-238 -239 0
-238 -240 0
-238 -241 0
-238 -242 0
-238 -243 0
-238 -244 0
-238 -245 0
-238 -246 0
-238 -247 0
-239 -240 0
-239 -241 0
-239 -242 0
-239 -243 0
-239 -244 0
-239 -245 0
-239 -246 0
-239 -247 0
-240 -241 0
-240 -242 0
-240 -243 0
-240 -244 0
-240 -245 0
-240 -246 0
-240 -247 0
-241 -242 0
-241 -243 0
-241 -244 0
-241 -245 0
-241 -246 0
-241 -247 0
-242 -243 0
-242 -244 0
-242 -245 0
-242 -246 0
-242 -247 0
-243 -244 0
-243 -245 0
-243 -246 0
-243 -247 0
-244 -245 0
-244 -246 0
-244 -247 0
-245 -246 0
-245 -247 0
-246 -247 0
-248 -249 0
-248 -250 0
-248 -251 0
-248 -252 0
-248 -253 0
-248 -254 0
-248 -255 0
-248 -256 0
-248 -257 0
-248 -258 0
-248 -259 0
-248 -260 0
-249 -250 0
-249 -251 0
-249 -252 0
-249 -253 0
-249 -254 0
-249 -255 0
-249 -256 0
-249 -257 0
-249 -258 0
-249 -259 0
-249 -260 0
-250 -251 0
-250 -252 0
-250 -253 0
-250 -254 0
-250 -255 0
-250 -256 0
-250 -257 0
-250 -258 0
-250 -259 0
-250 -260 0
-251 -252 0
-251 -253 0
-251 -254 0
-251 -255 0
-251 -256 0
-251 -257 0
-251 -258 0
-251 -259 0
-251 -260 0
-252 -253 0
-252 -254 0
-252 -255 0
-252 -256 0
-252 -257 0
-252 -258 0
-252 -259 0
-252 -260 0
-253 -254 0
-253 -255 0
-253 -256 0
-253 -257 0
-253 -258 0
-253 -259 0
-253 -260 0
-254 -255 0
-254 -256 0
-254 -257 0
-254 -258 0
-254 -259 0
-254 -260 0
-255 -256 0
-255 -257 0
-255 -258 0
-255 -259 0
-255 -260 0
-256 -257 0
-256 -258 0
-256 -259 0
-256 -260 0
-257 -258 0
-257 -259 0
-257 -260 0
-258 -259 0
-258 -260 0
-259 -260 0
-261 -262 0
-261 -263 0
-261 -264 0
-261 -265 0
-261 -266 0
-261 -267 0
-261 -268 0
-261 -269 0
-261 -270 0
-261 -271 0
-261 -272 0
-261 -273 0
-262 -263 0
-262 -264 0
-262 -265 0
-262 -266 0
-262 -267 0
-262 -268 0
-262 -269 0
-262 -270 0
-262 -271 0
-262 -272 0
-262 -273 0
-263 -264 0
-263 -265 0
-263 -266 0
-263 -267 0
-263 -268 0
-263 -269 0
-263 -270 0
-263 -271 0
-263 -272 0
-263 -273 0
-264 -265 0
-264 -266 0
-264 -267 0
-264 -268 0
-264 -269 0
-264 -270 0
-264 -271 0
-264 -272 0
-264 -273 0
-265 -266 0
-265 -267 0
-265 -268 0
-265 -269 0
-265 -270 0
-265 -271 0
-265 -272 0
-265 -273 0
-266 -267 0
-266 -268 0
-266 -269 0
-266 -270 0
-266 -271 0
-266 -272 0
-266 -273 0
-267 -268 0
-267 -269 0
-267 -270 0
-267 -271 0
-267 -272 0
-267 -273 0
-268 -269 0
-268 -270 0
-268 -271 0
-268 -272 0
-268 -273 0
-269 -270 0
-269 -271 0
-269 -272 0
-269 -273 0
-270 -271 0
-270 -272 0
-270 -273 0
-271 -272 0
-271 -273 0
-272 -273 0
-274 -275 0
-274 -276 0
-274 -277 0
-274 -278 0
-274 -279 0
-274 -280 0
-274 -281 0
-274 -282 0
-274 -283 0
-274 -284 0
-274 -285 0
-274 -286 0
-275 -276 0
-275 -277 0
-275 -278 0
-275 -279 0
-275 -280 0
-275 -281 0
-275 -282 0
-275 -283 0
-275 -284 0
-275 -285 0
-275 -286 0
-276 -277 0
-276 -278 0
-276 -279 0
-276 -280 0
-276 -281 0
-276 -282 0
-276 -283 0
-276 -284 0
-276 -285 0
-276 -286 0
-277 -278 0
-277 -279 0
-277 -280 0
-277 -281 0
-277 -282 0
-277 -283 0
-277 -284 0
-277 -285 0
-277 -286 0
-278 -279 0
-278 -280 0
-278 -281 0
-278 -282 0
-278 -283 0
-278 -284 0
-278 -285 0
-278 -286 0
-279 -280 0
-279 -281 0
-279 -282 0
-279 -283 0
-279 -284 0
-279 -285 0
-279 -286 0
-280 -281 0
-280 -282 0
-280 -283 0
-280 -284 0
-280 -285 0
-280 -286 0
-281 -282 0
-281 -283 0
-281 -284 0
-281 -285 0
-281 -286 0
-282 -283 0
-282 -284 0
-282 -285 0
-282 -286 0
-283 -284 0
-283 -285 0
-283 -286 0
-284 -285 0
-284 -286 0
-285 -286 0
-287 -288 0
-287 -289 0
-287 -290 0
-287 -291 0
-287 -292 0
-287 -293 0
-287 -294 0
-287 -295 0
-287 -296 0
-287 -297 0
-287 -298 0
-287 -299 0
-288 -289 0
-288 -290 0
-288 -291 0
-288 -292 0
-288 -293 0
-288 -294 0
-288 -295 0
-288 -296 0
-288 -297 0
-288 -298 0
-288 -299 0
-289 -290 0
-289 -291 0
-289 -292 0
-289 -293 0
-289 -294 0
-289 -295 0
-289 -296 0
-289 -297 0
-289 -298 0
-289 -299 0
-290 -291 0
-290 -292 0
-290 -293 0
-290 -294 0
-290 -295 0
-290 -296 0
-290 -297 0
-290 -298 0
-290 -299 0
-291 -292 0
-291 -293 0
-291 -294 0
-291 -295 0
-291 -296 0
-291 -297 0
-291 -298 0
-291 -299 0
-292 -293 0
-292 -294 0
-292 -295 0
-292 -296 0
-292 -297 0
-292 -298 0
-292 -299 0
-293 -294 0
-293 -295 0
-293 -296 0
-293 -297 0
-293 -298 0
-293 -299 0
-294 -295 0
-294 -296 0
-294 -297 0
-294 -298 0
-294 -299 0
-295 -296 0
-295 -297 0
-295 -298 0
-295 -299 0
-296 -297 0
-296 -298 0
-296 -299 0
-297 -298 0
-297 -299 0
-298 -299 0
-300 -301 0
-300 -302 0
-300 -303 0
-300 -304 0
-300 -305 0
-300 -306 0
-300 -307 0
-300 -308 0
-300 -309 0
-300 -310 0
-300 -311 0
-300 -312 0
-301 -302 0
-301 -303 0
-301 -304 0
-301 -305 0
-301 -306 0
-301 -307 0
-301 -308 0
-301 -309 0
-301 -310 0
-301 -311 0
-301 -312 0
-302 -303 0
-302 -304 0
-302 -305 0
-302 -306 0
-302 -307 0
-302 -308 0
-302 -309 0
-302 -310 0
-302 -311 0
-302 -312 0
-303 -304 0
-303 -305 0
-303 -306 0
-303 -307 0
-303 -308 0
-303 -309 0
-303 -310 0
-303 -311 0
-303 -312 0
-304 -305 0
-304 -306 0
-304 -307 0
-304 -308 0
-304 -309 0
-304 -310 0
-304 -311 0
-304 -312 0
-305 -306 0
-305 -307 0
-305 -308 0
-305 -309 0
-305 -310 0
-305 -311 0
-305 -312 0
-306 -307 0
-306 -308 0
-306 -309 0
-306 -310 0
-306 -311 0
-306 -312 0
-307 -308 0
-307 -309 0
-307 -310 0
-307 -311 0
-307 -312 0
-308 -309 0
-308 -310 0
-308 -311 0
-308 -312 0
-309 -310 0
-309 -311 0
-309 -312 0
-310 -311 0
-310 -312 0
-311 -312 0
-313 -314 0
-313 -315 0
-313 -316 0
-313 -317 0
-313 -318 0
-313 -319 0
-313 -320 0
-313 -321 0
-313 -322 0
-313 -323 0
-313 -324 0
-313 -325 0
-314 -315 0
-314 -316 0
-314 -317 0
-314 -318 0
-314 -319 0
-314 -320 0
-314 -321 0
-314 -322 0
-314 -323 0
-314 -324 0
-314 -325 0
-315 -316 0
-315 -317 0
-315 -318 0
-315 -319 0
-315 -320 0
-315 -321 0
-315 -322 0
-315 -323 0
-315 -324 0
-315 -325 0
-316 -317 0
-316 -318 0
-316 -319 0
-316 -320 0
-316 -321 0
-316 -322 0
-316 -323 0
-316 -324 0
-316 -325 0
-317 -318 0
-317 -319 0
-317 -320 0
-317 -321 0
-317 -322 0
-317 -323 0
-317 -324 0
-317 -325 0
-318 -319 0
-318 -320 0
-318 -321 0
-318 -322 0
-318 -323 0
-318 -324 0
-318 -325 0
-319 -320 0
-319 -321 0
-319 -322 0
-319 -323 0
-319 -324 0
-319 -325 0
-320 -321 0
-320 -322 0
-320 -323 0
-320 -324 0
-320 -325 0
-321 -322 0
-321 -323 0
-321 -324 0
-321 -325 0
-322 -323 0
-322 -324 0
-322 -325 0
-323 -324 0
-323 -325 0
-324 -325 0
-1 -66 0
-2 -67 0
-3 -68 0
-4 -69 0
-5 -70 0
-6 -71 0
-7 -72 0
-8 -73 0
-9 -74 0
-10 -75 0
-11 -76 0
-12 -77 0
-13 -78 0
-1 -79 0
-2 -80 0
-3 -81 0
-4 -82 0
-5 -83 0
-6 -84 0
-7 -85 0
-8 -86 0
-9 -87 0
-10 -88 0
-11 -89 0
-12 -90 0
-13 -91 0
-1 -105 0
-2 -106 0
-3 -107 0
-4 -108 0
-5 -109 0
-6 -110 0
-7 -111 0
-8 -112 0
-9 -113 0
-10 -114 0
-11 -115 0
-12 -116 0
-13 -117 0
-1 -144 0
-2 -145 0
-3 -146 0
-4 -147 0
-5 -148 0
-6 -149 0
-7 -150 0
-8 -151 0
-9 -152 0
-10 -153 0
-11 -154 0
-12 -155 0
-13 -156 0
-1 -157 0
-2 -158 0
-3 -159 0
-4 -160 0
-5 -161 0
-6 -162 0
-7 -163 0
-8 -164 0
-9 -165 0
-10 -166 0
-11 -167 0
-12 -168 0
-13 -169 0
-1 -170 0
-2 -171 0
-3 -172 0
-4 -173 0
-5 -174 0
-6 -175 0
-7 -176 0
-8 -177 0
-9 -178 0
-10 -179 0
-11 -180 0
-12 -181 0
-13 -182 0
-1 -209 0
-2 -210 0
-3 -211 0
-4 -212 0
-5 -213 0
-6 -214 0
-7 -215 0
-8 -216 0
-9 -217 0
-10 -218 0
-11 -219 0
-12 -220 0
-13 -221 0
-1 -222 0
-2 -223 0
-3 -224 0
-4 -225 0
-5 -226 0
-6 -227 0
-7 -228 0
-8 -229 0
-9 -230 0
-10 -231 0
-11 -232 0
-12 -233 0
-13 -234 0
-1 -248 0
-2 -249 0
-3 -250 0
-4 -251 0
-5 -252 0
-6 -253 0
-7 -254 0
-8 -255 0
-9 -256 0
-10 -257 0
-11 -258 0
-12 -259 0
-13 -260 0
-14 -40 0
-15 -41 0
-16 -42 0
-17 -43 0
-18 -44 0
-19 -45 0
-20 -46 0
-21 -47 0
-22 -48 0
-23 -49 0
-24 -50 0
-25 -51 0
-26 -52 0
-14 -66 0
-15 -67 0
-16 -68 0
-17 -69 0
-18 -70 0
-19 -71 0
-20 -72 0
-21 -73 0
-22 -74 0
-23 -75 0
-24 -76 0
-25 -77 0
-26 -78 0
-14 -105 0
-15 -106 0
-16 -107 0
-17 -108 0
-18 -109 0
-19 -110 0
-20 -111 0
-21 -112 0
-22 -113 0
-23 -114 0
-24 -115 0
-25 -116 0
-26 -117 0
-14 -131 0
-15 -132 0
-16 -133 0
-17 -134 0
-18 -135 0
-19 -136 0
-20 -137 0
-21 -138 0
-22 -139 0
-23 -140 0
-24 -141 0
-25 -142 0
-26 -143 0
-14 -209 0
-15 -210 0
-16 -211 0
-17 -212 0
-18 -213 0
-19 -214 0
-20 -215 0
-21 -216 0
-22 -217 0
-23 -218 0
-24 -219 0
-25 -220 0
-26 -221 0
-14 -287 0
-15 -288 0
-16 -289 0
-17 -290 0
-18 -291 0
-19 -292 0
-20 -293 0
-21 -294 0
-22 -295 0
-23 -296 0
-24 -297 0
-25 -298 0
-26 -299 0
-27 -79 0
-28 -80 0
-29 -81 0
-30 -82 0
-31 -83 0
-32 -84 0
-33 -85 0
-34 -86 0
-35 -87 0
-36 -88 0
-37 -89 0
-38 -90 0
-39 -91 0
-27 -131 0
-28 -132 0
-29 -133 0
-30 -134 0
-31 -135 0
-32 -136 0
-33 -137 0
-34 -138 0
-35 -139 0
-36 -140 0
-37 -141 0
-38 -142 0
-39 -143 0
-27 -183 0
-28 -184 0
-29 -185 0
-30 -186 0
-31 -187 0
-32 -188 0
-33 -189 0
-34 -190 0
-35 -191 0
-36 -192 0
-37 -193 0
-38 -194 0
-39 -195 0
-40 -118 0
-41 -119 0
-42 -120 0
-43 -121 0
-44 -122 0
-45 -123 0
-46 -124 0
-47 -125 0
-48 -126 0
-49 -127 0
-50 -128 0
-51 -129 0
-52 -130 0
-40 -274 0
-41 -275 0
-42 -276 0
-43 -277 0
-44 -278 0
-45 -279 0
-46 -280 0
-47 -281 0
-48 -282 0
-49 -283 0
-50 -284 0
-51 -285 0
-52 -286 0
-53 -105 0
-54 -106 0
-55 -107 0
-56 -108 0
-57 -109 0
-58 -110 0
-59 -111 0
-60 -112 0
-61 -113 0
-62 -114 0
-63 -115 0
-64 -116 0
-65 -117 0
-53 -118 0
-54 -119 0
-55 -120 0
-56 -121 0
-57 -122 0
-58 -123 0
-59 -124 0
-60 -125 0
-61 -126 0
-62 -127 0
-63 -128 0
-64 -129 0
-65 -130 0
-53 -131 0
-54 -132 0
-55 -133 0
-56 -134 0
-57 -135 0
-58 -136 0
-59 -137 0
-60 -138 0
-61 -139 0
-62 -140 0
-63 -141 0
-64 -142 0
-65 -143 0
-53 -144 0
-54 -145 0
-55 -146 0
-56 -147 0
-57 -148 0
-58 -149 0
-59 -150 0
-60 -151 0
-61 -152 0
-62 -153 0
-63 -154 0
-64 -155 0
-65 -156 0
-53 -157 0
-54 -158 0
-55 -159 0
-56 -160 0
-57 -161 0
-58 -162 0
-59 -163 0
-60 -164 0
-61 -165 0
-62 -166 0
-63 -167 0
-64 -168 0
-65 -169 0
-53 -222 0
-54 -223 0
-55 -224 0
-56 -225 0
-57 -226 0
-58 -227 0
-59 -228 0
-60 -229 0
-61 -230 0
-62 -231 0
-63 -232 0
-64 -233 0
-65 -234 0
-66 -105 0
-67 -106 0
-68 -107 0
-69 -108 0
-70 -109 0
-71 -110 0
-72 -111 0
-73 -112 0
-74 -113 0
-75 -114 0
-76 -115 0
-77 -116 0
-78 -117 0
-66 -157 0
-67 -158 0
-68 -159 0
-69 -160 0
-70 -161 0
-71 -162 0
-72 -163 0
-73 -164 0
-74 -165 0
-75 -166 0
-76 -167 0
-77 -168 0
-78 -169 0
-66 -196 0
-67 -197 0
-68 -198 0
-69 -199 0
-70 -200 0
-71 -201 0
-72 -202 0
-73 -203 0
-74 -204 0
-75 -205 0
-76 -206 0
-77 -207 0
-78 -208 0
-66 -209 0
-67 -210 0
-68 -211 0
-69 -212 0
-70 -213 0
-71 -214 0
-72 -215 0
-73 -216 0
-74 -217 0
-75 -218 0
-76 -219 0
-77 -220 0
-78 -221 0
-66 -248 0
-67 -249 0
-68 -250 0
-69 -251 0
-70 -252 0
-71 -253 0
-72 -254 0
-73 -255 0
-74 -256 0
-75 -257 0
-76 -258 0
-77 -259 0
-78 -260 0
-66 -261 0
-67 -262 0
-68 -263 0
-69 -264 0
-70 -265 0
-71 -266 0
-72 -267 0
-73 -268 0
-74 -269 0
-75 -270 0
-76 -271 0
-77 -272 0
-78 -273 0
-66 -287 0
-67 -288 0
-68 -289 0
-69 -290 0
-70 -291 0
-71 -292 0
-72 -293 0
-73 -294 0
-74 -295 0
-75 -296 0
-76 -297 0
-77 -298 0
-78 -299 0
-66 -300 0
-67 -301 0
-68 -302 0
-69 -303 0
-70 -304 0
-71 -305 0
-72 -306 0
-73 -307 0
-74 -308 0
-75 -309 0
-76 -310 0
-77 -311 0
-78 -312 0
-79 -92 0
-80 -93 0
-81 -94 0
-82 -95 0
-83 -96 0
-84 -97 0
-85 -98 0
-86 -99 0
-87 -100 0
-88 -101 0
-89 -102 0
-90 -103 0
-91 -104 0
-79 -131 0
-80 -132 0
-81 -133 0
-82 -134 0
-83 -135 0
-84 -136 0
-85 -137 0
-86 -138 0
-87 -139 0
-88 -140 0
-89 -141 0
-90 -142 0
-91 -143 0
-79 -144 0
-80 -145 0
-81 -146 0
-82 -147 0
-83 -148 0
-84 -149 0
-85 -150 0
-86 -151 0
-87 -152 0
-88 -153 0
-89 -154 0
-90 -155 0
-91 -156 0
-79 -157 0
-80 -158 0
-81 -159 0
-82 -160 0
-83 -161 0
-84 -162 0
-85 -163 0
-86 -164 0
-87 -165 0
-88 -166 0
-89 -167 0
-90 -168 0
-91 -169 0
-79 -196 0
-80 -197 0
-81 -198 0
-82 -199 0
-83 -200 0
-84 -201 0
-85 -202 0
-86 -203 0
-87 -204 0
-88 -205 0
-89 -206 0
-90 -207 0
-91 -208 0
-79 -261 0
-80 -262 0
-81 -263 0
-82 -264 0
-83 -265 0
-84 -266 0
-85 -267 0
-86 -268 0
-87 -269 0
-88 -270 0
-89 -271 0
-90 -272 0
-91 -273 0
-79 -287 0
-80 -288 0
-81 -289 0
-82 -290 0
-83 -291 0
-84 -292 0
-85 -293 0
-86 -294 0
-87 -295 0
-88 -296 0
-89 -297 0
-90 -298 0
-91 -299 0
-92 -105 0
-93 -106 0
-94 -107 0
-95 -108 0
-96 -109 0
-97 -110 0
-98 -111 0
-99 -112 0
-100 -113 0
-101 -114 0
-102 -115 0
-103 -116 0
-104 -117 0
-92 -118 0
-93 -119 0
-94 -120 0
-95 -121 0
-96 -122 0
-97 -123 0
-98 -124 0
-99 -125 0
-100 -126 0
-101 -127 0
-102 -128 0
-103 -129 0
-104 -130 0
-92 -144 0
-93 -145 0
-94 -146 0
-95 -147 0
-96 -148 0
-97 -149 0
-98 -150 0
-99 -151 0
-100 -152 0
-101 -153 0
-102 -154 0
-103 -155 0
-104 -156 0
-92 -157 0
-93 -158 0
-94 -159 0
-95 -160 0
-96 -161 0
-97 -162 0
-98 -163 0
-99 -164 0
-100 -165 0
-101 -166 0
-102 -167 0
-103 -168 0
-104 -169 0
-92 -222 0
-93 -223 0
-94 -224 0
-95 -225 0
-96 -226 0
-97 -227 0
-98 -228 0
-99 -229 0
-100 -230 0
-101 -231 0
-102 -232 0
-103 -233 0
-104 -234 0
-92 -261 0
-93 -262 0
-94 -263 0
-95 -264 0
-96 -265 0
-97 -266 0
-98 -267 0
-99 -268 0
-100 -269 0
-101 -270 0
-102 -271 0
-103 -272 0
-104 -273 0
-92 -287 0
-93 -288 0
-94 -289 0
-95 -290 0
-96 -291 0
-97 -292 0
-98 -293 0
-99 -294 0
-100 -295 0
-101 -296 0
-102 -297 0
-103 -298 0
-104 -299 0
-105 -118 0
-106 -119 0
-107 -120 0
-108 -121 0
-109 -122 0
-110 -123 0
-111 -124 0
-112 -125 0
-113 -126 0
-114 -127 0
-115 -128 0
-116 -129 0
-117 -130 0
-105 -287 0
-106 -288 0
-107 -289 0
-108 -290 0
-109 -291 0
-110 -292 0
-111 -293 0
-112 -294 0
-113 -295 0
-114 -296 0
-115 -297 0
-116 -298 0
-117 -299 0
-118 -131 0
-119 -132 0
-120 -133 0
-121 -134 0
-122 -135 0
-123 -136 0
-124 -137 0
-125 -138 0
-126 -139 0
-127 -140 0
-128 -141 0
-129 -142 0
-130 -143 0
-118 -144 0
-119 -145 0
-120 -146 0
-121 -147 0
-122 -148 0
-123 -149 0
-124 -150 0
-125 -151 0
-126 -152 0
-127 -153 0
-128 -154 0
-129 -155 0
-130 -156 0
-118 -222 0
-119 -223 0
-120 -224 0
-121 -225 0
-122 -226 0
-123 -227 0
-124 -228 0
-125 -229 0
-126 -230 0
-127 -231 0
-128 -232 0
-129 -233 0
-130 -234 0
-118 -235 0
-119 -236 0
-120 -237 0
-121 -238 0
-122 -239 0
-123 -240 0
-124 -241 0
-125 -242 0
-126 -243 0
-127 -244 0
-128 -245 0
-129 -246 0
-130 -247 0
-118 -274 0
-119 -275 0
-120 -276 0
-121 -277 0
-122 -278 0
-123 -279 0
-124 -280 0
-125 -281 0
-126 -282 0
-127 -283 0
-128 -284 0
-129 -285 0
-130 -286 0
-118 -300 0
-119 -301 0
-120 -302 0
-121 -303 0
-122 -304 0
-123 -305 0
-124 -306 0
-125 -307 0
-126 -308 0
-127 -309 0
-128 -310 0
-129 -311 0
-130 -312 0
-118 -313 0
-119 -314 0
-120 -315 0
-121 -316 0
-122 -317 0
-123 -318 0
-124 -319 0
-125 -320 0
-126 -321 0
-127 -322 0
-128 -323 0
-129 -324 0
-130 -325 0
-131 -183 0
-132 -184 0
-133 -185 0
-134 -186 0
-135 -187 0
-136 -188 0
-137 -189 0
-138 -190 0
-139 -191 0
-140 -192 0
-141 -193 0
-142 -194 0
-143 -195 0
-131 -209 0
-132 -210 0
-133 -211 0
-134 -212 0
-135 -213 0
-136 -214 0
-137 -215 0
-138 -216 0
-139 -217 0
-140 -218 0
-141 -219 0
-142 -220 0
-143 -221 0
-131 -248 0
-132 -249 0
-133 -250 0
-134 -251 0
-135 -252 0
-136 -253 0
-137 -254 0
-138 -255 0
-139 -256 0
-140 -257 0
-141 -258 0
-142 -259 0
-143 -260 0
-144 -183 0
-145 -184 0
-146 -185 0
-147 -186 0
-148 -187 0
-149 -188 0
-150 -189 0
-151 -190 0
-152 -191 0
-153 -192 0
-154 -193 0
-155 -194 0
-156 -195 0
-144 -209 0
-145 -210 0
-146 -211 0
-147 -212 0
-148 -213 0
-149 -214 0
-150 -215 0
-151 -216 0
-152 -217 0
-153 -218 0
-154 -219 0
-155 -220 0
-156 -221 0
-144 -222 0
-145 -223 0
-146 -224 0
-147 -225 0
-148 -226 0
-149 -227 0
-150 -228 0
-151 -229 0
-152 -230 0
-153 -231 0
-154 -232 0
-155 -233 0
-156 -234 0
-144 -261 0
-145 -262 0
-146 -263 0
-147 -264 0
-148 -265 0
-149 -266 0
-150 -267 0
-151 -268 0
-152 -269 0
-153 -270 0
-154 -271 0
-155 -272 0
-156 -273 0
-144 -274 0
-145 -275 0
-146 -276 0
-147 -277 0
-148 -278 0
-149 -279 0
-150 -280 0
-151 -281 0
-152 -282 0
-153 -283 0
-154 -284 0
-155 -285 0
-156 -286 0
-144 -313 0
-145 -314 0
-146 -315 0
-147 -316 0
-148 -317 0
-149 -318 0
-150 -319 0
-151 -320 0
-152 -321 0
-153 -322 0
-154 -323 0
-155 -324 0
-156 -325 0
-157 -300 0
-158 -301 0
-159 -302 0
-160 -303 0
-161 -304 0
-162 -305 0
-163 -306 0
-164 -307 0
-165 -308 0
-166 -309 0
-167 -310 0
-168 -311 0
-169 -312 0
-157 -313 0
-158 -314 0
-159 -315 0
-160 -316 0
-161 -317 0
-162 -318 0
-163 -319 0
-164 -320 0
-165 -321 0
-166 -322 0
-167 -323 0
-168 -324 0
-169 -325 0
-170 -183 0
-171 -184 0
-172 -185 0
-173 -186 0
-174 -187 0
-175 -188 0
-176 -189 0
-177 -190 0
-178 -191 0
-179 -192 0
-180 -193 0
-181 -194 0
-182 -195 0
-170 -222 0
-171 -223 0
-172 -224 0
-173 -225 0
-174 -226 0
-175 -227 0
-176 -228 0
-177 -229 0
-178 -230 0
-179 -231 0
-180 -232 0
-181 -233 0
-182 -234 0
-170 -235 0
-171 -236 0
-172 -237 0
-173 -238 0
-174 -239 0
-175 -240 0
-176 -241 0
-177 -242 0
-178 -243 0
-179 -244 0
-180 -245 0
-181 -246 0
-182 -247 0
-170 -274 0
-171 -275 0
-172 -276 0
-173 -277 0
-174 -278 0
-175 -279 0
-176 -280 0
-177 -281 0
-178 -282 0
-179 -283 0
-180 -284 0
-181 -285 0
-182 -286 0
-170 -287 0
-171 -288 0
-172 -289 0
-173 -290 0
-174 -291 0
-175 -292 0
-176 -293 0
-177 -294 0
-178 -295 0
-179 -296 0
-180 -297 0
-181 -298 0
-182 -299 0
-170 -300 0
-171 -301 0
-172 -302 0
-173 -303 0
-174 -304 0
-175 -305 0
-176 -306 0
-177 -307 0
-178 -308 0
-179 -309 0
-180 -310 0
-181 -311 0
-182 -312 0
-170 -313 0
-171 -314 0
-172 -315 0
-173 -316 0
-174 -317 0
-175 -318 0
-176 -319 0
-177 -320 0
-178 -321 0
-179 -322 0
-180 -323 0
-181 -324 0
-182 -325 0
-183 -196 0
-184 -197 0
-185 -198 0
-186 -199 0
-187 -200 0
-188 -201 0
-189 -202 0
-190 -203 0
-191 -204 0
-192 -205 0
-193 -206 0
-194 -207 0
-195 -208 0
-183 -222 0
-184 -223 0
-185 -224 0
-186 -225 0
-187 -226 0
-188 -227 0
-189 -228 0
-190 -229 0
-191 -230 0
-192 -231 0
-193 -232 0
-194 -233 0
-195 -234 0
-183 -248 0
-184 -249 0
-185 -250 0
-186 -251 0
-187 -252 0
-188 -253 0
-189 -254 0
-190 -255 0
-191 -256 0
-192 -257 0
-193 -258 0
-194 -259 0
-195 -260 0
-209 -235 0
-210 -236 0
-211 -237 0
-212 -238 0
-213 -239 0
-214 -240 0
-215 -241 0
-216 -242 0
-217 -243 0
-218 -244 0
-219 -245 0
-220 -246 0
-221 -247 0
-209 -274 0
-210 -275 0
-211 -276 0
-212 -277 0
-213 -278 0
-214 -279 0
-215 -280 0
-216 -281 0
-217 -282 0
-218 -283 0
-219 -284 0
-220 -285 0
-221 -286 0
-209 -300 0
-210 -301 0
-211 -302 0
-212 -303 0
-213 -304 0
-214 -305 0
-215 -306 0
-216 -307 0
-217 -308 0
-218 -309 0
-219 -310 0
-220 -311 0
-221 -312 0
-222 -248 0
-223 -249 0
-224 -250 0
-225 -251 0
-226 -252 0
-227 -253 0
-228 -254 0
-229 -255 0
-230 -256 0
-231 -257 0
-232 -258 0
-233 -259 0
-234 -260 0
-222 -261 0
-223 -262 0
-224 -263 0
-225 -264 0
-226 -265 0
-227 -266 0
-228 -267 0
-229 -268 0
-230 -269 0
-231 -270 0
-232 -271 0
-233 -272 0
-234 -273 0
-222 -313 0
-223 -314 0
-224 -315 0
-225 -316 0
-226 -317 0
-227 -318 0
-228 -319 0
-229 -320 0
-230 -321 0
-231 -322 0
-232 -323 0
-233 -324 0
-234 -325 0
-235 -248 0
-236 -249 0
-237 -250 0
-238 -251 0
-239 -252 0
-240 -253 0
-241 -254 0
-242 -255 0
-243 -256 0
-244 -257 0
-245 -258 0
-246 -259 0
-247 -260 0
-248 -274 0
-249 -275 0
-250 -276 0
-251 -277 0
-252 -278 0
-253 -279 0
-254 -280 0
-255 -281 0
-256 -282 0
-257 -283 0
-258 -284 0
-259 -285 0
-260 -286 0
-248 -300 0
-249 -301 0
-250 -302 0
-251 -303 0
-252 -304 0
-253 -305 0
-254 -306 0
-255 -307 0
-256 -308 0
-257 -309 0
-258 -310 0
-259 -311 0
-260 -312 0
-261 -274 0
-262 -275 0
-263 -276 0
-264 -277 0
-265 -278 0
-266 -279 0
-267 -280 0
-268 -281 0
-269 -282 0
-270 -283 0
-271 -284 0
-272 -285 0
-273 -286 0
-274 -313 0
-275 -314 0
-276 -315 0
-277 -316 0
-278 -317 0
-279 -318 0
-280 -319 0
-281 -320 0
-282 -321 0
-283 -322 0
-284 -323 0
-285 -324 0
-286 -325 0
-287 -300 0
-288 -301 0
-289 -302 0
-290 -303 0
-291 -304 0
-292 -305 0
-293 -306 0
-294 -307 0
-295 -308 0
-296 -309 0
-297 -310 0
-298 -311 0
-299 -312 0
